c FILE: i160-104

c SOURCE: From steinlib

c DESCRIPTION: Steinlib instance with 160 nodes and 240 edges.

p edge 160 240
e 1 30
e 1 80
e 1 86
e 1 101
e 1 104
e 1 160
e 2 30
e 2 84
e 2 102
e 2 110
e 2 136
e 3 117
e 3 151
e 4 53
e 4 75
e 5 80
e 5 127
e 6 88
e 7 20
e 7 38
e 7 101
e 7 119
e 8 73
e 8 103
e 8 137
e 8 151
e 9 24
e 9 34
e 9 102
e 10 37
e 10 101
e 10 107
e 10 110
e 10 121
e 10 139
e 10 144
e 10 151
e 10 155
e 11 64
e 11 119
e 11 122
e 12 20
e 12 100
e 13 84
e 13 115
e 13 119
e 14 42
e 14 43
e 14 50
e 14 96
e 14 125
e 14 140
e 15 149
e 16 78
e 16 100
e 16 150
e 17 99
e 17 140
e 17 144
e 18 102
e 19 51
e 19 84
e 19 134
e 20 64
e 20 131
e 21 124
e 22 59
e 22 86
e 22 100
e 22 112
e 22 124
e 22 144
e 23 128
e 24 29
e 24 67
e 24 129
e 24 155
e 25 140
e 25 143
e 26 56
e 26 136
e 27 101
e 27 116
e 27 122
e 27 125
e 27 133
e 28 91
e 28 156
e 29 70
e 30 109
e 30 120
e 30 122
e 30 140
e 31 60
e 31 84
e 32 123
e 33 62
e 34 56
e 35 47
e 35 60
e 35 62
e 35 97
e 35 110
e 36 52
e 36 98
e 36 126
e 36 153
e 37 57
e 37 139
e 37 153
e 38 58
e 38 75
e 38 158
e 39 105
e 39 138
e 40 57
e 41 63
e 41 80
e 42 89
e 42 137
e 43 80
e 44 48
e 44 136
e 45 120
e 45 128
e 46 63
e 48 150
e 48 151
e 49 73
e 49 84
e 50 136
e 51 63
e 51 113
e 51 149
e 52 143
e 54 69
e 54 126
e 54 135
e 55 85
e 55 91
e 55 131
e 55 142
e 55 155
e 56 85
e 56 149
e 56 157
e 57 75
e 57 114
e 58 101
e 58 123
e 59 79
e 60 127
e 61 100
e 62 139
e 63 71
e 63 85
e 63 115
e 64 66
e 65 126
e 65 158
e 66 86
e 66 98
e 67 149
e 68 117
e 68 125
e 68 137
e 69 138
e 70 98
e 71 76
e 71 111
e 72 107
e 73 134
e 74 139
e 74 143
e 77 102
e 77 112
e 78 133
e 79 85
e 79 107
e 80 127
e 81 131
e 81 145
e 82 125
e 82 134
e 83 91
e 84 106
e 84 111
e 85 90
e 85 150
e 85 160
e 86 138
e 86 154
e 87 91
e 87 99
e 87 103
e 87 126
e 88 107
e 89 138
e 89 151
e 91 121
e 92 111
e 92 160
e 93 118
e 93 128
e 93 154
e 93 157
e 94 125
e 95 149
e 96 115
e 96 118
e 98 130
e 99 123
e 100 114
e 101 113
e 101 156
e 103 137
e 103 148
e 104 146
e 104 160
e 106 126
e 108 152
e 110 152
e 112 157
e 114 154
e 115 159
e 116 121
e 118 139
e 119 125
e 120 156
e 124 134
e 124 143
e 126 139
e 128 141
e 131 145
e 132 145
e 135 151
e 145 148
e 147 155
e 152 153
e 155 157
